32      4       
10      10      10      10      
0       0       0       0       0       11      2       3       5       7       10      15      16      28      29      30      31      
7       1       1       0       1       4       4       12      14      26      
9       4       2       0       4       2       4       12      
9       6       0       1       5       3       6       8       20      
8       0       4       4       5       5       12      14      19      26      27      
1       3       0       5       4       4       9       19      23      24      
3       4       5       0       4       4       21      22      23      25      
3       3       3       3       0       3       13      18      22      
5       4       3       0       6       2       11      21      
8       2       5       4       0       1       12      
4       6       0       3       4       1       18      
8       3       6       8       0       1       20      
7       6       0       4       4       1       17      
10      4       0       5       6       1       17      
10      6       3       0       8       1       25      
6       0       4       4       5       1       19      
5       0       8       4       7       1       32      
9       5       0       1       4       1       32      
4       6       0       4       4       1       32      
9       5       0       5       2       1       32      
8       0       3       4       3       1       32      
2       0       3       5       2       1       32      
9       5       3       0       4       1       32      
4       1       4       3       0       1       32      
2       2       5       3       0       1       32      
1       2       0       6       5       1       32      
10      3       7       0       3       1       32      
7       7       5       0       1       1       32      
9       4       1       0       3       1       32      
4       0       4       1       4       1       32      
5       0       5       7       2       1       32      
0       0       0       0       0       0       
